peakDumbCharging = 7400; 
Machine = anon_enum(16); 
machineSpeed = [3700,3700,3700,3700,3700,3700,3700,3700,3700,3700,3700,3700,3700,3700,3700,3700]; 
machineLoad = [3700,3700,3700,3700,3700,3700,3700,3700,3700,3700,3700,3700,3700,3700,3700,3700]; 
Car = anon_enum(6); 
demandCar = [4360,22040,14760,4320,12280,30240]; 
arrivalCar = [70,68,61,57,53,43]; 
departureCar = [74,76,68,61,63,56]; 
